1 100
0 40.0 50.0 0.0 0.0 0 1236
2 45.0 68.0 90.0 10.0 890 989
3 45.0 70.0 90.0 30.0 816 879
4 42.0 66.0 90.0 10.0 55 156
5 42.0 68.0 90.0 10.0 703 806
6 42.0 65.0 90.0 10.0 15 60
7 40.0 69.0 90.0 20.0 559 764
8 40.0 66.0 90.0 20.0 172 223
9 38.0 68.0 90.0 20.0 250 329
10 38.0 70.0 90.0 10.0 489 650
11 35.0 66.0 90.0 10.0 361 406
12 35.0 69.0 90.0 10.0 450 503
13 25.0 85.0 90.0 20.0 647 726
14 22.0 75.0 90.0 30.0 30 95
15 22.0 85.0 90.0 10.0 571 616
16 20.0 80.0 90.0 40.0 392 421
17 20.0 85.0 90.0 40.0 478 525
18 18.0 75.0 90.0 20.0 105 142
19 15.0 75.0 90.0 20.0 172 261
20 15.0 80.0 90.0 10.0 274 349
21 30.0 50.0 90.0 10.0 10 77
22 30.0 52.0 90.0 20.0 918 961
23 28.0 52.0 90.0 20.0 806 889
24 28.0 55.0 90.0 10.0 739 770
25 25.0 50.0 90.0 10.0 55 154
26 25.0 52.0 90.0 40.0 172 221
27 25.0 55.0 90.0 10.0 612 711
28 23.0 52.0 90.0 10.0 264 313
29 23.0 55.0 90.0 20.0 553 586
30 20.0 50.0 90.0 10.0 365 398
31 20.0 55.0 90.0 10.0 452 501
32 10.0 35.0 90.0 20.0 204 233
33 10.0 40.0 90.0 30.0 31 189
34 8.0 40.0 90.0 40.0 42 203
35 8.0 45.0 90.0 20.0 715 852
36 5.0 35.0 90.0 10.0 251 376
37 5.0 45.0 90.0 10.0 648 733
38 2.0 40.0 90.0 20.0 365 452
39 0.0 40.0 90.0 30.0 474 527
40 0.0 45.0 90.0 20.0 541 650
41 35.0 30.0 90.0 10.0 240 345
42 35.0 32.0 90.0 10.0 123 278
43 33.0 32.0 90.0 20.0 19 225
44 33.0 35.0 90.0 10.0 16 153
45 32.0 30.0 90.0 10.0 338 433
46 30.0 30.0 90.0 10.0 513 628
47 30.0 32.0 90.0 30.0 415 542
48 30.0 35.0 90.0 10.0 872 1127
49 28.0 30.0 90.0 10.0 599 726
50 28.0 35.0 90.0 10.0 917 1126
51 26.0 32.0 90.0 10.0 779 916
52 25.0 30.0 90.0 10.0 695 816
53 25.0 35.0 90.0 10.0 857 1024
54 44.0 5.0 90.0 20.0 221 412
55 42.0 10.0 90.0 40.0 96 347
56 42.0 15.0 90.0 10.0 35 233
57 40.0 5.0 90.0 30.0 347 474
58 40.0 15.0 90.0 40.0 35 172
59 38.0 5.0 90.0 30.0 403 602
60 38.0 15.0 90.0 10.0 521 870
61 35.0 5.0 90.0 20.0 487 704
62 50.0 30.0 90.0 10.0 422 719
63 50.0 35.0 90.0 20.0 217 362
64 50.0 40.0 90.0 50.0 142 247
65 48.0 30.0 90.0 10.0 567 758
66 48.0 40.0 90.0 10.0 34 171
67 47.0 35.0 90.0 10.0 794 907
68 47.0 40.0 90.0 10.0 12 226
69 45.0 30.0 90.0 10.0 716 795
70 45.0 35.0 90.0 10.0 873 1012
71 95.0 30.0 90.0 30.0 266 577
72 95.0 35.0 90.0 20.0 181 472
73 53.0 30.0 90.0 10.0 402 553
74 92.0 30.0 90.0 10.0 345 684
75 53.0 35.0 90.0 50.0 294 471
76 45.0 65.0 90.0 20.0 951 1114
77 90.0 35.0 90.0 10.0 153 310
78 88.0 30.0 90.0 10.0 450 767
79 88.0 35.0 90.0 20.0 50 237
80 87.0 30.0 90.0 10.0 567 832
81 85.0 25.0 90.0 10.0 713 876
82 85.0 35.0 90.0 30.0 47 331
83 75.0 55.0 90.0 20.0 311 478
84 72.0 55.0 90.0 10.0 127 476
85 70.0 58.0 90.0 20.0 349 632
86 68.0 60.0 90.0 30.0 476 691
87 66.0 55.0 90.0 10.0 67 344
88 65.0 55.0 90.0 20.0 25 256
89 65.0 60.0 90.0 30.0 546 807
90 63.0 58.0 90.0 10.0 630 909
91 60.0 55.0 90.0 10.0 20 293
92 60.0 60.0 90.0 10.0 769 956
93 67.0 85.0 90.0 20.0 229 580
94 65.0 85.0 90.0 40.0 442 551
95 65.0 82.0 90.0 10.0 227 394
96 62.0 80.0 90.0 30.0 163 272
97 60.0 80.0 90.0 10.0 36 291
98 60.0 85.0 90.0 30.0 469 714
99 58.0 75.0 90.0 20.0 30 227
100 55.0 80.0 90.0 10.0 595 968
101 55.0 85.0 90.0 20.0 493 880